p cnf 51 200
c p weight 24 0 0
c p weight -24 1 0
c p weight 25 1.0 0
c p weight -25 1 0
20 -19 17 0
20 -19 18 0
-20 19 17 0
-20 19 18 0
20 19 -17 -18 0
-20 -19 -17 -18 0
21 17 -18 0
21 -17 18 0
-21 17 18 0
-21 -17 -18 0
22 23 -20 0
22 -20 21 0
-22 23 20 0
-22 20 21 0
22 -20 -17 0
-22 20 -17 0
22 -23 20 17 -21 0
-22 -23 -20 17 -21 0
23 -17 21 0
-23 17 21 0
-24 21 0
23 -24 -17 0
-23 -24 17 0
23 24 17 -21 0
-23 24 -17 -21 0
-25 21 0
23 -25 17 0
-23 -25 -17 0
23 25 -17 -21 0
-23 25 17 -21 0
26 -22 23 0
26 -22 21 0
-26 22 23 0
-26 22 21 0
26 22 -23 -21 0
-26 -22 -23 -21 0
27 23 -21 0
27 -23 21 0
-27 23 21 0
-27 -23 -21 0
28 -26 23 0
28 -26 16 0
-28 26 23 0
-28 26 16 0
28 -26 15 -27 0
28 -26 -15 27 0
-28 26 15 -27 0
-28 26 -15 27 0
28 26 -23 15 27 -16 0
28 26 -23 -15 -27 -16 0
-28 -26 -23 15 27 -16 0
-28 -26 -23 -15 -27 -16 0
30 23 -15 0
30 -23 15 0
-30 23 15 0
-30 -23 -15 0
29 27 -16 0
29 -27 16 0
-29 27 16 0
-29 -27 -16 0
31 -28 30 0
31 -28 14 0
-31 28 30 0
-31 28 14 0
31 -28 13 -16 0
31 -28 -13 16 0
-31 28 13 -16 0
-31 28 -13 16 0
31 28 -30 13 16 -14 0
31 28 -30 -13 -16 -14 0
-31 -28 -30 13 16 -14 0
-31 -28 -30 -13 -16 -14 0
33 30 -13 0
33 -30 13 0
-33 30 13 0
-33 -30 -13 0
32 16 -14 0
32 -16 14 0
-32 16 14 0
-32 -16 -14 0
34 -31 33 0
34 -31 12 0
-34 31 33 0
-34 31 12 0
34 -31 11 -14 0
34 -31 -11 14 0
-34 31 11 -14 0
-34 31 -11 14 0
34 31 -33 11 14 -12 0
34 31 -33 -11 -14 -12 0
-34 -31 -33 11 14 -12 0
-34 -31 -33 -11 -14 -12 0
36 33 -11 0
36 -33 11 0
-36 33 11 0
-36 -33 -11 0
35 14 -12 0
35 -14 12 0
-35 14 12 0
-35 -14 -12 0
37 -34 36 0
37 -34 10 0
-37 34 36 0
-37 34 10 0
37 -34 9 -12 0
37 -34 -9 12 0
-37 34 9 -12 0
-37 34 -9 12 0
37 34 -36 9 12 -10 0
37 34 -36 -9 -12 -10 0
-37 -34 -36 9 12 -10 0
-37 -34 -36 -9 -12 -10 0
39 36 -9 0
39 -36 9 0
-39 36 9 0
-39 -36 -9 0
38 12 -10 0
38 -12 10 0
-38 12 10 0
-38 -12 -10 0
40 -37 39 0
40 -37 8 0
-40 37 39 0
-40 37 8 0
40 -37 7 -10 0
40 -37 -7 10 0
-40 37 7 -10 0
-40 37 -7 10 0
40 37 -39 7 10 -8 0
40 37 -39 -7 -10 -8 0
-40 -37 -39 7 10 -8 0
-40 -37 -39 -7 -10 -8 0
42 39 -7 0
42 -39 7 0
-42 39 7 0
-42 -39 -7 0
41 10 -8 0
41 -10 8 0
-41 10 8 0
-41 -10 -8 0
43 -40 42 0
43 -40 6 0
-43 40 42 0
-43 40 6 0
43 -40 5 -8 0
43 -40 -5 8 0
-43 40 5 -8 0
-43 40 -5 8 0
43 40 -42 5 8 -6 0
43 40 -42 -5 -8 -6 0
-43 -40 -42 5 8 -6 0
-43 -40 -42 -5 -8 -6 0
45 42 -5 0
45 -42 5 0
-45 42 5 0
-45 -42 -5 0
44 8 -6 0
44 -8 6 0
-44 8 6 0
-44 -8 -6 0
46 -43 45 0
46 -43 4 0
-46 43 45 0
-46 43 4 0
46 -43 3 -6 0
46 -43 -3 6 0
-46 43 3 -6 0
-46 43 -3 6 0
46 43 -45 3 6 -4 0
46 43 -45 -3 -6 -4 0
-46 -43 -45 3 6 -4 0
-46 -43 -45 -3 -6 -4 0
48 45 -3 0
48 -45 3 0
-48 45 3 0
-48 -45 -3 0
47 6 -4 0
47 -6 4 0
-47 6 4 0
-47 -6 -4 0
49 -46 48 0
49 -46 2 0
-49 46 48 0
-49 46 2 0
49 -46 1 -4 0
49 -46 -1 4 0
-49 46 1 -4 0
-49 46 -1 4 0
49 46 -48 1 4 -2 0
49 46 -48 -1 -4 -2 0
-49 -46 -48 1 4 -2 0
-49 -46 -48 -1 -4 -2 0
51 48 -1 0
51 -48 1 0
-51 48 1 0
-51 -48 -1 0
50 4 -2 0
50 -4 2 0
-50 4 2 0
-50 -4 -2 0
